n1 = 5;
adjacent1 = [| 0, 0, 0, 0, 1
| 0, 0, 0, 0, 0
| 0, 0, 0, 1, 0
| 0, 0, 1, 0, 0
| 1, 0, 0, 0, 0 |];
n2 = 5;
adjacent2 = [| 0, 0, 1, 1, 1
| 0, 0, 1, 1, 0
| 1, 1, 0, 0, 0
| 1, 1, 0, 0, 0
| 1, 0, 0, 0, 0 |];
vertexDeletionCost = [45, 45, 45, 45, 45];
vertexInsertionCost = [45, 45, 45, 45, 45];
vertexSubstitutionCost = [| 90, 31.38470965295043, 90, 90, 90
| 90, 90, 90, 90, 90
| 90, 90, 54.60082416960389, 90, 90
| 90, 49.64876634922564, 90, 90, 90
| 90, 90, 25.71478174124758, 90, 90 |];
edgeDeletionCost = [| 0.0, 0.0, 0.0, 0.0, 15.0
| 0.0, 0.0, 0.0, 0.0, 0.0
| 0.0, 0.0, 0.0, 15.0, 0.0
| 0.0, 0.0, 15.0, 0.0, 0.0
| 15.0, 0.0, 0.0, 0.0, 0.0 |];
edgeInsertionCost = [| 0.0, 0.0, 7.5, 7.5, 7.5
| 0.0, 0.0, 7.5, 7.5, 0.0
| 7.5, 7.5, 0.0, 0.0, 0.0
| 7.5, 7.5, 0.0, 0.0, 0.0
| 7.5, 0.0, 0.0, 0.0, 0.0 |];
edgeSubstitutionCost = array4d(1..n1, 1..n1, 1..n2, 1..n2, [0, 0, 7.5, 7.5, 7.5, 0, 0, 7.5, 7.5, 0, 7.5, 7.5, 0, 0, 0, 7.5, 7.5, 0, 0, 0, 7.5, 0, 0, 0, 0, 0, 0, 7.5, 7.5, 7.5, 0, 0, 7.5, 7.5, 0, 7.5, 7.5, 0, 0, 0, 7.5, 7.5, 0, 0, 0, 7.5, 0, 0, 0, 0, 0, 0, 7.5, 7.5, 7.5, 0, 0, 7.5, 7.5, 0, 7.5, 7.5, 0, 0, 0, 7.5, 7.5, 0, 0, 0, 7.5, 0, 0, 0, 0, 0, 0, 7.5, 7.5, 7.5, 0, 0, 7.5, 7.5, 0, 7.5, 7.5, 0, 0, 0, 7.5, 7.5, 0, 0, 0, 7.5, 0, 0, 0, 0, 15.0, 15.0, 7.5, 7.5, 7.5, 15.0, 15.0, 7.5, 7.5, 15.0, 7.5, 7.5, 15.0, 15.0, 15.0, 7.5, 7.5, 15.0, 15.0, 15.0, 7.5, 15.0, 15.0, 15.0, 15.0, 0, 0, 7.5, 7.5, 7.5, 0, 0, 7.5, 7.5, 0, 7.5, 7.5, 0, 0, 0, 7.5, 7.5, 0, 0, 0, 7.5, 0, 0, 0, 0, 0, 0, 7.5, 7.5, 7.5, 0, 0, 7.5, 7.5, 0, 7.5, 7.5, 0, 0, 0, 7.5, 7.5, 0, 0, 0, 7.5, 0, 0, 0, 0, 0, 0, 7.5, 7.5, 7.5, 0, 0, 7.5, 7.5, 0, 7.5, 7.5, 0, 0, 0, 7.5, 7.5, 0, 0, 0, 7.5, 0, 0, 0, 0, 0, 0, 7.5, 7.5, 7.5, 0, 0, 7.5, 7.5, 0, 7.5, 7.5, 0, 0, 0, 7.5, 7.5, 0, 0, 0, 7.5, 0, 0, 0, 0, 0, 0, 7.5, 7.5, 7.5, 0, 0, 7.5, 7.5, 0, 7.5, 7.5, 0, 0, 0, 7.5, 7.5, 0, 0, 0, 7.5, 0, 0, 0, 0, 0, 0, 7.5, 7.5, 7.5, 0, 0, 7.5, 7.5, 0, 7.5, 7.5, 0, 0, 0, 7.5, 7.5, 0, 0, 0, 7.5, 0, 0, 0, 0, 0, 0, 7.5, 7.5, 7.5, 0, 0, 7.5, 7.5, 0, 7.5, 7.5, 0, 0, 0, 7.5, 7.5, 0, 0, 0, 7.5, 0, 0, 0, 0, 0, 0, 7.5, 7.5, 7.5, 0, 0, 7.5, 7.5, 0, 7.5, 7.5, 0, 0, 0, 7.5, 7.5, 0, 0, 0, 7.5, 0, 0, 0, 0, 15.0, 15.0, 7.5, 7.5, 7.5, 15.0, 15.0, 7.5, 7.5, 15.0, 7.5, 7.5, 15.0, 15.0, 15.0, 7.5, 7.5, 15.0, 15.0, 15.0, 7.5, 15.0, 15.0, 15.0, 15.0, 0, 0, 7.5, 7.5, 7.5, 0, 0, 7.5, 7.5, 0, 7.5, 7.5, 0, 0, 0, 7.5, 7.5, 0, 0, 0, 7.5, 0, 0, 0, 0, 0, 0, 7.5, 7.5, 7.5, 0, 0, 7.5, 7.5, 0, 7.5, 7.5, 0, 0, 0, 7.5, 7.5, 0, 0, 0, 7.5, 0, 0, 0, 0, 0, 0, 7.5, 7.5, 7.5, 0, 0, 7.5, 7.5, 0, 7.5, 7.5, 0, 0, 0, 7.5, 7.5, 0, 0, 0, 7.5, 0, 0, 0, 0, 15.0, 15.0, 7.5, 7.5, 7.5, 15.0, 15.0, 7.5, 7.5, 15.0, 7.5, 7.5, 15.0, 15.0, 15.0, 7.5, 7.5, 15.0, 15.0, 15.0, 7.5, 15.0, 15.0, 15.0, 15.0, 0, 0, 7.5, 7.5, 7.5, 0, 0, 7.5, 7.5, 0, 7.5, 7.5, 0, 0, 0, 7.5, 7.5, 0, 0, 0, 7.5, 0, 0, 0, 0, 0, 0, 7.5, 7.5, 7.5, 0, 0, 7.5, 7.5, 0, 7.5, 7.5, 0, 0, 0, 7.5, 7.5, 0, 0, 0, 7.5, 0, 0, 0, 0, 15.0, 15.0, 7.5, 7.5, 7.5, 15.0, 15.0, 7.5, 7.5, 15.0, 7.5, 7.5, 15.0, 15.0, 15.0, 7.5, 7.5, 15.0, 15.0, 15.0, 7.5, 15.0, 15.0, 15.0, 15.0, 0, 0, 7.5, 7.5, 7.5, 0, 0, 7.5, 7.5, 0, 7.5, 7.5, 0, 0, 0, 7.5, 7.5, 0, 0, 0, 7.5, 0, 0, 0, 0, 0, 0, 7.5, 7.5, 7.5, 0, 0, 7.5, 7.5, 0, 7.5, 7.5, 0, 0, 0, 7.5, 7.5, 0, 0, 0, 7.5, 0, 0, 0, 0, 0, 0, 7.5, 7.5, 7.5, 0, 0, 7.5, 7.5, 0, 7.5, 7.5, 0, 0, 0, 7.5, 7.5, 0, 0, 0, 7.5, 0, 0, 0, 0, 0, 0, 7.5, 7.5, 7.5, 0, 0, 7.5, 7.5, 0, 7.5, 7.5, 0, 0, 0, 7.5, 7.5, 0, 0, 0, 7.5, 0, 0, 0, 0]);
